p tw 55 65
1 2
2 13
3 4
4 5
5 6
5 11
6 7
7 8
7 11
8 9
9 10
9 11
10 11
11 12
12 14
13 24
14 15
15 16
16 17
17 18
17 21
18 19
19 20
20 50
21 22
22 23
23 25
23 39
24 35
25 26
26 27
27 28
28 29
28 36
29 30
30 31
31 32
32 33
33 34
34 26
35 46
35 3
36 37
37 38
38 50
39 40
40 41
41 42
41 43
42 43
43 44
44 45
45 47
46 52
47 48
47 50
48 49
49 50
50 51
52 53
52 3
53 54
54 55
54 3
55 3
